! UKS B3LYP 6-31G Opt

%geom Scan
B 0 1 = 1.0, 1.3, 4
end
end

*xyz 0 2
O 0 0 0
H 0 0 1.0
*

%eprnmr
  gtensor 1
  Nuclei = all H {fgrad}
end
