! UKS B3LYP 6-31G


%paras
R = 1.0, 1.3, 4
end

*xyz 0 2
O 0 0 0
H 0 0 {R}
*

%eprnmr
  gtensor 1
  Nuclei = all H {aiso, adip, aorb, fgrad, rho}
  Nuclei = all O {aiso, adip, aorb, fgrad, rho}
end
