! UKS B3LYP 6-31G
*xyz 0 3
O 0 0 0
O 0 0 1.8
*

%eprnmr
  gtensor 1
  Dtensor ssandso
  Nuclei = all O {aiso, adip, aorb, fgrad, rho}
end
