! UKS B3LYP 6-31G
*xyz 0 2
O 0 0 0
H 0 0 0.98
*

%eprnmr
  gtensor 1
  Nuclei = all H {aiso, adip, aorb, fgrad, rho}
end