! UKS PBE0 EPR-III D3BJ TightSCF
*xyz 0 3
N        0.00000        0.00000        0.00000
C        1.19337       -0.69557        0.00000
C        1.27722       -2.06478        0.00000
C        0.07192       -2.83517        0.00000
C       -1.16486       -2.16483        0.00000
C       -2.42070       -2.81923        0.00000
C       -3.66234       -2.07787        0.00000
C       -3.64198       -0.71240        0.00000
C       -2.38004       -0.01749        0.00000
C       -1.14022       -0.71981        0.00000
H        2.09100       -0.07416        0.00000
H        2.24891       -2.55912        0.00000
H        0.10496       -3.92535        0.00000
H       -2.44822       -3.91055        0.00000
H       -4.60560       -2.62436        0.00000
H       -4.56809       -0.13769        0.00000
H       -2.33797        1.07166        0.00000
*

%eprnmr gTensor 1
        Dtensor ss
        DSS uno
        Nuclei = all N {aiso, adip, aorb, fgrad, rho}
end
