! UKS PBE0 EPR-III D3BJ TightSCF
*xyz 0 3
N       -0.27945       -1.16999        1.69456
C       -0.04592       -2.46991        2.09905
C       -0.45385       -3.57268        1.39248
C       -1.16311       -3.38808        0.16401
C       -1.42138       -2.07958       -0.28332
C       -2.11272       -1.77365       -1.48075
C       -2.35002       -0.40763       -1.89178
C       -1.90337        0.62531       -1.11815
C       -1.19668        0.34648        0.10587
C       -0.94752       -0.98847        0.53742
H        0.49761       -2.57087        3.04047
H       -0.24055       -4.57595        1.76193
H       -1.50083       -4.24444       -0.42094
H       -2.47400       -2.59195       -2.10652
H       -2.88695       -0.21994       -2.82177
H       -2.07339        1.66085       -1.41263
H       -0.83052        1.15377        0.74008
*

%eprnmr gTensor 1
        Dtensor ss
        DSS uno
        Nuclei = all N {aiso, adip, aorb, fgrad, rho}
end
